10 6 15 4 11 18 14 7 12 17 2 0 1 5 13 9 19 16 3 8  
10 6 15 4 14 8 0 18 11 19 16 5 9 13 7 1 17 12 2 3  
10 6 15 4 11 18 14 8 17 12 9 19 16 5 0 1 7 2 3 13  
10 6 15 4 11 18 14 8 17 12 9 19 16 5 0 2 13 7 3 1  
10 6 15 4 11 18 14 7 12 9 5 17 19 2 1 0 13 16 3 8  
10 6 15 4 11 18 14 8 17 12 9 19 16 5 0 13 2 1 7 3  
10 6 15 4 11 18 14 8 17 12 9 19 16 5 0 2 13 7 3 1  
10 6 15 4 11 18 14 8 17 12 9 19 16 5 0 2 13 7 1 3  
10 6 15 4 11 18 14 8 17 12 9 19 16 5 0 1 7 3 2 13  
10 6 11 4 15 18 14 17 12 7 5 9 19 2 1 0 13 16 3 8  
10 6 15 4 18 11 14 5 8 17 12 9 19 2 0 1 7 13 16 3  
10 6 15 4 11 18 14 8 17 12 9 19 16 5 7 2 13 0 1 3  
10 6 15 4 14 8 0 18 11 19 16 5 9 13 7 1 17 12 2 3  
10 6 15 4 11 18 14 8 17 12 9 19 16 5 0 2 13 7 3 1  
10 6 15 4 18 14 11 5 8 17 12 9 19 16 0 2 13 7 3 1  
10 6 15 4 18 11 14 5 8 17 12 9 19 2 7 1 0 13 16 3  
10 6 15 4 11 18 14 8 17 12 9 19 16 5 7 13 0 1 2 3  
10 6 15 4 18 14 8 11 17 12 9 19 16 5 2 7 0 1 13 3  
10 6 15 4 11 18 14 7 12 17 2 0 1 5 13 9 19 16 3 8  
10 6 15 4 18 14 7 8 11 17 12 9 19 16 5 0 13 2 3 1  
10 6 15 4 18 11 14 7 12 17 2 0 1 5 13 9 19 16 3 8  
10 6 15 4 11 18 14 8 17 12 0 19 16 5 9 13 2 1 7 3  
10 6 15 4 11 18 14 17 1 7 0 12 2 5 13 9 19 16 3 8  
10 6 15 4 18 14 7 8 11 17 12 9 19 16 5 0 1 2 3 13  
10 6 15 4 11 14 18 8 17 12 0 19 16 5 2 9 13 7 3 1  
10 6 15 4 18 14 11 5 8 17 12 9 19 16 0 2 13 7 3 1  
10 6 15 4 18 14 11 7 8 17 12 9 19 16 0 2 13 5 3 1  
10 6 15 4 18 14 7 8 11 17 12 9 19 16 5 0 13 2 3 1  
10 6 11 4 18 15 14 5 17 12 2 13 0 1 7 9 19 16 3 8  
10 6 15 4 11 18 14 8 17 12 9 19 16 5 0 1 7 2 3 13  
10 6 15 4 14 8 0 18 11 19 16 5 9 13 2 1 7 17 12 3  
10 6 15 4 11 14 18 8 17 12 9 19 16 5 0 13 3 1 7 2  
10 6 15 4 11 18 14 7 8 17 12 9 19 16 5 0 1 2 13 3  
10 6 15 4 18 14 11 7 8 17 12 9 13 16 0 1 5 2 3 19  
10 6 15 4 11 18 14 7 17 1 0 12 2 5 13 9 19 16 3 8  
10 6 15 4 11 14 18 8 17 12 0 19 16 5 9 13 1 7 2 3  
10 6 15 4 11 14 5 12 17 18 2 13 0 1 7 9 19 16 3 8  
10 6 15 4 18 14 11 17 12 7 8 5 9 19 2 1 0 13 16 3  
10 6 15 4 11 18 14 8 17 12 0 19 16 5 9 13 2 1 7 3  
10 6 15 4 11 14 18 8 17 12 0 19 16 5 9 13 3 1 7 2  
